% From JaCoP's nonogramRepository/data072.nin
 rows = 25;
 row_rule_len = 6;
 row_rules = array2d(1..rows, 1..row_rule_len, 
[
 0,0,0,0,4,4,
 0,0,0,2,2,6,
 0,0,0,1,1,7,
 0,1,1,1,1,2,
 0,0,0,1,1,3,
 0,0,2,3,2,2,
 0,0,0,0,12,7,
 0,0,0,2,3,3,
 0,0,0,2,3,5,
 0,0,0,0,10,10,
 0,0,0,0,2,16,
 0,0,0,2,13,1,
 0,0,0,3,12,2,
 0,0,6,2,1,1,
 4,1,1,6,2,1,
 0,0,2,8,2,1,
 0,0,2,1,14,1,
 0,7,1,1,9,2,
 0,0,7,2,5,2,
 0,2,1,2,4,2,
 0,2,1,3,2,2,
 0,0,4,1,3,7,
 0,0,4,4,1,4,
 0,0,2,5,1,6,
 0,0,0,0,15,2
]);

 cols = 30;
 col_rule_len = 6;
 col_rules = array2d(1..cols, 1..col_rule_len, 
[
 0,0,0,6,1,2,
 0,2,2,2,2,2,
 0,0,0,1,1,11,
 0,0,0,1,1,11,
 2,1,1,2,2,2,
 0,3,1,1,2,4,
 0,0,1,1,1,2,
 0,0,0,1,1,2,
 0,0,0,2,3,2,
 0,0,0,2,2,4,
 0,0,0,2,1,2,
 0,0,0,5,4,1,
 0,0,0,5,2,1,
 0,0,0,4,5,2,
 0,0,0,0,3,11,
 0,0,1,3,4,3,
 0,0,5,4,1,9,
 0,3,2,5,1,9,
 0,0,4,9,6,1,
 0,0,3,9,4,1,
 0,5,2,4,3,2,
 0,6,5,3,1,1,
 0,0,9,2,1,1,
 0,0,0,9,2,1,
 0,0,0,6,3,2,
 0,0,3,2,1,2,
 0,0,0,3,2,3,
 0,0,0,0,6,4,
 0,0,0,0,0,5,
 0,0,0,0,0,3
]);

